// S = {B, A, 7}; B = 11; A = 10
// D = {5, 4, 3, 2, 1}
// R = {A, 9, 8, 7, 6, 5, 4, 3, 2, 1}

// N5 = 5; N4 = 9; N3 = 0; N2 = 13; N1 = 0
// N. Contraints <= 11-1 = 10
// N. Variables <= 5 * (3 + 11 - 2*1) = 60

min: 11x115 + 11x114 + 11x113 + 11x112 + 11x111 + 10x105 + 10x104 + 10x103 + 10x102 + 10x101 + -10x111 + 7x75 + 7x74 + 7x73 + 7x72 + 7x71 + -7x114 + -7x103 + -7x92 + -7x81;

c0: 1x112 - 1x92 >= 0;
c1: 1x102 - 1x81 - 1x85 - 1x84 - 1x83 >= 0;
c2: 1x101 - 1x95 - 1x94 >= 0;
c3: 1x71 - 1x65 - 1x64 - 1x63 - 1x62 >= 0;
c4: 1x74 - 1x32 - 1x31 >= 0;

b0: 1x115 + 1x105 + 1x75 + 1x105 + 1x95 + 1x85 + 1x65 + -1x54 + -1x53 + -1x52 + -1x51 >= 5;
b1: 1x114 + 1x104 + 1x74 + 1x94 + 1x84 + 1x64 + 1x54 + -1x43 + -1x42 + -1x41 >= 9;
b2: 1x113 + 1x103 + 1x73 + 1x83 + 1x63 + 1x53 + 1x43 + -1x32 + -1x31 >= 0;
b3: 1x112 + 1x102 + 1x72 + 1x62 + 1x52 + 1x42 + 1x32 + -1x21 >= 13;
b4: 1x111 + 1x101 + 1x71 + 1x61 + 1x51 + 1x41 + 1x31 + 1x21 >= 0;

int x105, x103, x102, x75, x74, x81, x32;
